Version identifier: 22.1.0.0 | 2022-03-09 | 1a383f8ce
CPXPARAM_Threads                                 1
CPXPARAM_MIP_Strategy_VariableSelect             3
CPXPARAM_TimeLimit                               596.89480943299998
1 of 1 MIP starts provided solutions.
MIP start 'm1' defined initial solution with objective 280.0000.
Tried aggregator 1 time.
MIP Presolve eliminated 13 rows and 0 columns.
MIP Presolve modified 180 coefficients.
Reduced MIP has 1807 rows, 6000 columns, and 109837 nonzeros.
Reduced MIP has 6000 binaries, 0 generals, 0 SOSs, and 0 indicators.
Presolve time = 0.16 sec. (207.99 ticks)
Probing time = 0.02 sec. (17.72 ticks)
Tried aggregator 1 time.
Detecting symmetries...
MIP Presolve modified 13 coefficients.
Reduced MIP has 1807 rows, 6000 columns, and 110084 nonzeros.
Reduced MIP has 6000 binaries, 0 generals, 0 SOSs, and 0 indicators.
Presolve time = 0.12 sec. (158.38 ticks)
Probing time = 0.02 sec. (17.75 ticks)
Clique table members: 1279.
MIP emphasis: balance optimality and feasibility.
MIP search method: dynamic search.
Parallel mode: none, using 1 thread.
Root relaxation solution time = 5.77 sec. (7779.91 ticks)

        Nodes                                         Cuts/
   Node  Left     Objective  IInf  Best Integer    Best Bound    ItCnt     Gap

*     0+    0                          280.0000    45150.0000              --- 
      0     0      300.0000  1278      280.0000      300.0000    17738    7.14%
      0     0      300.0000  1181      280.0000      Cuts: 10    34478    7.14%
      0     0      300.0000  1269      280.0000      Cuts: 21    53987    7.14%
      0     0      300.0000  1276      280.0000      Cuts: 44    73832    7.14%
Detecting symmetries...
      0     2      300.0000   866      280.0000      300.0000    73832    7.14%
Elapsed time = 89.85 sec. (102382.98 ticks, tree = 0.01 MB, solutions = 1)
      2     2      300.0000  1234      280.0000      300.0000    79870    7.14%
      3     2      300.0000  1192      280.0000      300.0000    85419    7.14%
      4     3      300.0000  1186      280.0000      300.0000    85426    7.14%
      5     4      300.0000  1247      280.0000      300.0000    95855    7.14%
      6     5      300.0000  1184      280.0000      300.0000    95861    7.14%
      7     6      300.0000  1171      280.0000      300.0000    95903    7.14%
      8     7      300.0000  1122      280.0000      300.0000   106374    7.14%
      9     8      300.0000  1130      280.0000      300.0000   107470    7.14%
     10     9      300.0000  1122      280.0000      300.0000   107479    7.14%
     13    12      300.0000  1139      280.0000      300.0000   108567    7.14%
Elapsed time = 105.18 sec. (119703.26 ticks, tree = 0.06 MB, solutions = 1)
     14    13      300.0000  1250      280.0000      300.0000   119243    7.14%
     17    16      300.0000  1303      280.0000      300.0000   121102    7.14%
     18    17      300.0000  1150      280.0000      300.0000   131428    7.14%
     20    19      300.0000  1151      280.0000      300.0000   132775    7.14%
     23    22      300.0000  1132      280.0000      300.0000   133575    7.14%
     26    25      300.0000  1131      280.0000      300.0000   134185    7.14%
     29    26      300.0000  1168      280.0000      300.0000   135696    7.14%
     30    27      300.0000  1135      280.0000      300.0000   135723    7.14%
     32    29      300.0000  1130      280.0000      300.0000   137521    7.14%
     35    32      300.0000  1276      280.0000      300.0000   140285    7.14%
Elapsed time = 140.94 sec. (161755.28 ticks, tree = 0.11 MB, solutions = 1)
     38    35      300.0000  1139      280.0000      300.0000   142001    7.14%
     41    38      300.0000  1121      280.0000      300.0000   142356    7.14%
     43    40      300.0000  1126      280.0000      300.0000   143440    7.14%
     47    42      300.0000  1109      280.0000      300.0000   147490    7.14%
     49    44      300.0000  1179      280.0000      300.0000   150905    7.14%
     51    45      299.0000  1094      280.0000      300.0000   170229    7.14%
     52    46      300.0000  1104      280.0000      300.0000   179178    7.14%
     54    48      300.0000  1084      280.0000      300.0000   180809    7.14%
     55    48      299.0000  1121      280.0000      300.0000   194650    7.14%
     58    51      300.0000   938      280.0000      300.0000   196644    7.14%
Elapsed time = 158.43 sec. (182341.77 ticks, tree = 0.16 MB, solutions = 1)
     60    52      299.0000  1032      280.0000      300.0000   207523    7.14%
     61    52      300.0000   950      280.0000      300.0000   211217    7.14%
     62    52      299.6522  1000      280.0000      300.0000   216727    7.14%
     63    53      300.0000  1011      280.0000      300.0000   220616    7.14%
     65    53      299.4758  1080      280.0000      300.0000   230841    7.14%
     66    53      299.0000  1120      280.0000      300.0000   235361    7.14%
     68    55      299.0000  1151      280.0000      300.0000   236311    7.14%
     71    58      299.0000  1136      280.0000      300.0000   237755    7.14%
     74    59      299.0000  1123      280.0000      300.0000   239255    7.14%
     76    61      299.0000  1114      280.0000      300.0000   241760    7.14%
Elapsed time = 173.88 sec. (200211.21 ticks, tree = 0.20 MB, solutions = 1)
     78    62      298.8300  1035      280.0000      300.0000   254196    7.14%
     79    63      299.0000  1062      280.0000      300.0000   261237    7.14%
     80    63      299.0000  1050      280.0000      300.0000   267968    7.14%
     81    64      299.0000  1030      280.0000      300.0000   273480    7.14%
     82    65      299.0000  1046      280.0000      300.0000   279062    7.14%
     83    65      298.2950   955      280.0000      300.0000   289918    7.14%
     85    66      299.0000  1023      280.0000      300.0000   290235    7.14%
     88    67      299.0000  1055      280.0000      300.0000   294393    7.14%
     89    67      298.0000  1045      280.0000      300.0000   309050    7.14%
     91    69      299.0000  1089      280.0000      300.0000   316607    7.14%
Elapsed time = 200.88 sec. (230487.71 ticks, tree = 0.24 MB, solutions = 1)
     93    70      298.3757  1009      280.0000      300.0000   323654    7.14%
     95    72      299.0000  1038      280.0000      300.0000   324753    7.14%
     98    75      299.0000  1008      280.0000      300.0000   327751    7.14%
    100    76      299.0000   999      280.0000      300.0000   332734    7.14%
    103    77      298.0000  1011      280.0000      300.0000   339735    7.14%
    105    79      299.0000   981      280.0000      300.0000   345427    7.14%
    107    80      299.0000   987      280.0000      300.0000   353305    7.14%
    110    81      298.0000  1022      280.0000      300.0000   362677    7.14%
    113    83      299.0000  1002      280.0000      300.0000   368929    7.14%
    116    85      298.0000   994      280.0000      300.0000   373078    7.14%
Elapsed time = 221.74 sec. (252561.24 ticks, tree = 0.50 MB, solutions = 1)
    119    87      299.0000   983      280.0000      300.0000   380521    7.14%
    120    87      299.0000   985      280.0000      300.0000   380522    7.14%
    123    89      299.0000   970      280.0000      300.0000   389020    7.14%
    126    90      299.0000   958      280.0000      300.0000   393830    7.14%
    127    90      298.2598   960      280.0000      300.0000   403803    7.14%
    130    91      298.8734   991      280.0000      300.0000   419047    7.14%
    135    94      298.0000   981      280.0000      300.0000   422082    7.14%
    137    96      298.0000   962      280.0000      300.0000   439709    7.14%
    140    97      297.0000   976      280.0000      300.0000   450148    7.14%
    143    99      297.0000   905      280.0000      300.0000   459213    7.14%
Elapsed time = 244.63 sec. (276887.77 ticks, tree = 0.72 MB, solutions = 1)
    146   101      298.0000   945      280.0000      300.0000   464423    7.14%
    149   102      297.0000   924      280.0000      300.0000   476190    7.14%
    152   104      298.0000   932      280.0000      300.0000   481784    7.14%
    155   105      297.0000   932      280.0000      300.0000   493904    7.14%
    159   107      297.0000   922      280.0000      300.0000   504961    7.14%
    162   109      298.0000   895      280.0000      300.0000   510222    7.14%
    164   110      297.0000   904      280.0000      300.0000   518116    7.14%
    167   112      297.0000   895      280.0000      300.0000   524516    7.14%
    170   113      296.0000   835      280.0000      300.0000   535161    7.14%
    175   118      296.0000   844      280.0000      300.0000   536718    7.14%
Elapsed time = 256.85 sec. (289235.26 ticks, tree = 1.03 MB, solutions = 1)
    178   119      295.0000   819      280.0000      300.0000   544068    7.14%
    179   119      295.0000   855      280.0000      300.0000   552052    7.14%
    180   119      294.0000   850      280.0000      300.0000   554373    7.14%
    185   123      294.0000   826      280.0000      300.0000   555899    7.14%
    188   126      294.0000   824      280.0000      300.0000   561023    7.14%
    192   130      294.0000   793      280.0000      300.0000   564477    7.14%
    196   132      294.0000   782      280.0000      300.0000   571663    7.14%
    200   134      292.0000   773      280.0000      300.0000   580064    7.14%
    204   138      292.0000   758      280.0000      300.0000   582812    7.14%
    208   141      292.0000   760      280.0000      300.0000   588299    7.14%
Elapsed time = 270.57 sec. (303259.02 ticks, tree = 1.42 MB, solutions = 1)
    212   145      292.0000   771      280.0000      300.0000   591865    7.14%
    217   149      292.0000   762      280.0000      300.0000   593653    7.14%
    221   153      292.0000   760      280.0000      300.0000   595958    7.14%
    225   156      292.0000   745      280.0000      300.0000   599160    7.14%
    229   159      292.0000   802      280.0000      300.0000   602112    7.14%
    234   162      292.0000   747      280.0000      300.0000   604433    7.14%
    238   166      292.0000   775      280.0000      300.0000   606544    7.14%
    242   168      292.0000   781      280.0000      300.0000   609517    7.14%
    246   172      292.0000   752      280.0000      300.0000   610860    7.14%
    263   178      284.0000   506      280.0000      300.0000   626999    7.14%
Elapsed time = 283.32 sec. (316270.48 ticks, tree = 2.05 MB, solutions = 1)
    294   200      284.0000   410      280.0000      300.0000   633220    7.14%
    328   222      284.0000   265      280.0000      300.0000   641024    7.14%
    339   227      300.0000  1121      280.0000      300.0000   651095    7.14%
    346   233      300.0000  1008      280.0000      300.0000   670591    7.14%
    351   237      300.0000   936      280.0000      300.0000   700327    7.14%
    356   239      299.0000   996      280.0000      300.0000   748855    7.14%
    360   240      299.0000  1118      280.0000      300.0000   766111    7.14%
    366   244      299.0000   978      280.0000      300.0000   819317    7.14%
    370   246      299.0000  1102      280.0000      300.0000   848861    7.14%
    375   248      299.0000  1070      280.0000      300.0000   898210    7.14%
Elapsed time = 342.31 sec. (375131.68 ticks, tree = 3.21 MB, solutions = 1)
    378   250      299.0000   960      280.0000      300.0000   929326    7.14%
    379   250      299.0000  1009      280.0000      300.0000   960319    7.14%
    382   252      299.0000  1005      280.0000      300.0000   981888    7.14%
    388   256      300.0000   876      280.0000      300.0000  1015594    7.14%
    391   257      299.0000   997      280.0000      300.0000  1042657    7.14%
    397   260      299.0000   982      280.0000      300.0000  1088178    7.14%
    405   263      299.0000   976      280.0000      300.0000  1135820    7.14%
    412   266      300.0000   860      280.0000      300.0000  1181478    7.14%
    418   269      299.0000  1070      280.0000      300.0000  1247070    7.14%
    422   271      300.0000   879      280.0000      300.0000  1257510    7.14%
Elapsed time = 394.94 sec. (427582.47 ticks, tree = 3.59 MB, solutions = 1)
    426   273      300.0000   857      280.0000      300.0000  1270764    7.14%
    432   276      299.0000   996      280.0000      300.0000  1277634    7.14%
    439   280      299.0000  1006      280.0000      300.0000  1285389    7.14%
    440   281      300.0000   858      280.0000      300.0000  1286254    7.14%
    445   284      299.0000   952      280.0000      300.0000  1293810    7.14%
    450   287      299.0000  1130      280.0000      300.0000  1298973    7.14%
    451   288      300.0000   903      280.0000      300.0000  1310147    7.14%
    457   291      300.0000   874      280.0000      300.0000  1331021    7.14%
    462   293      299.0000  1043      280.0000      300.0000  1363362    7.14%
    467   296      299.0000  1058      280.0000      300.0000  1404432    7.14%
Elapsed time = 431.95 sec. (468835.94 ticks, tree = 4.01 MB, solutions = 1)
    471   299      300.0000   847      280.0000      300.0000  1408006    7.14%
    475   301      300.0000   827      280.0000      300.0000  1418789    7.14%
    482   305      299.0000   912      280.0000      300.0000  1428251    7.14%
    489   308      300.0000   810      280.0000      300.0000  1441707    7.14%
    490   308      299.0000  1007      280.0000      300.0000  1473222    7.14%
    497   311      299.0000  1059      280.0000      300.0000  1479486    7.14%
    505   315      298.2718  1034      280.0000      300.0000  1485071    7.14%
    513   319      298.5426   983      280.0000      300.0000  1491787    7.14%
    520   323      299.0000  1104      280.0000      300.0000  1497409    7.14%
    529   327      299.0000  1068      280.0000      300.0000  1502938    7.14%
Elapsed time = 470.00 sec. (513310.90 ticks, tree = 4.53 MB, solutions = 1)
    530   327      298.0000   963      280.0000      300.0000  1505207    7.14%
    538   331      298.7697  1057      280.0000      300.0000  1512489    7.14%
    546   334      298.9388  1032      280.0000      300.0000  1518278    7.14%
    549   336      299.0000  1073      280.0000      300.0000  1529400    7.14%
    556   339      298.0000  1027      280.0000      300.0000  1536156    7.14%
    560   341      298.0000  1050      280.0000      300.0000  1540208    7.14%
    567   345      299.0000  1107      280.0000      300.0000  1546079    7.14%
    570   346      298.0000  1075      280.0000      300.0000  1549768    7.14%
    576   349      298.3587  1018      280.0000      300.0000  1556162    7.14%
    582   352      298.7726  1066      280.0000      300.0000  1560767    7.14%
Elapsed time = 505.59 sec. (555550.24 ticks, tree = 4.95 MB, solutions = 1)
    590   356      298.0000  1072      280.0000      300.0000  1567581    7.14%
    597   360      299.0000  1128      280.0000      300.0000  1573498    7.14%
    603   363      299.0000  1106      280.0000      300.0000  1579299    7.14%
    610   366      297.9747  1026      280.0000      300.0000  1584621    7.14%
    618   370      298.0000  1073      280.0000      300.0000  1592770    7.14%
    624   373      298.1250  1033      280.0000      300.0000  1597061    7.14%
    630   376      298.0000   978      280.0000      300.0000  1601674    7.14%
    635   379      299.0000  1038      280.0000      300.0000  1615731    7.14%
    643   383      299.0000  1044      280.0000      300.0000  1622514    7.14%
    650   385      298.0000  1013      280.0000      300.0000  1628922    7.14%
Elapsed time = 546.25 sec. (603738.59 ticks, tree = 5.50 MB, solutions = 1)
    653   387      299.0000  1043      280.0000      300.0000  1641753    7.14%
    660   390      298.0000  1036      280.0000      300.0000  1648257    7.14%
    668   394      298.1636  1048      280.0000      300.0000  1655942    7.14%
    673   397      299.0000  1029      280.0000      300.0000  1659900    7.14%
    680   399      298.0000   963      280.0000      300.0000  1666327    7.14%
    688   403      297.9548   987      280.0000      300.0000  1674617    7.14%
    690   404      297.9451   901      280.0000      300.0000  1685506    7.14%
    698   408      298.0896  1031      280.0000      300.0000  1692712    7.14%
Starting limited solution polishing.
    704   411      298.1525  1047      280.0000      300.0000  1698349    7.14%
    711   415      298.0000   983      280.0000      300.0000  1704983    7.14%
Elapsed time = 584.42 sec. (648153.02 ticks, tree = 6.00 MB, solutions = 1)
    720   418      298.0000  1054      280.0000      300.0000  1712007    7.14%
    728   422      299.0000  1027      280.0000      300.0000  1717498    7.14%
    735   425      298.0000  1019      280.0000      300.0000  1724731    7.14%

Clique cuts applied:  33
Zero-half cuts applied:  10

Root node processing (before b&c):
  Real time             =   89.69 sec. (102240.74 ticks)
Sequential b&c:
  Real time             =  507.21 sec. (560639.60 ticks)
                          ------------
Total (root+branch&cut) =  596.90 sec. (662880.34 ticks)
Primal:	280
Dual:	300
Status:	Feasible
Time:	596.92
Sequence:
	17
	5
	10
	5
	15
	2
	6
	15
	0
	7
	10
	6
	15
	0
	15
	7
	0
	15
	6
	2
	15
	0
	10
	6
	15
	2
	15
	5
	0
	10
	4
	15
	0
	7
	15
	1
	15
	7
	10
	0
	10
	8
	4
	10
	8
	10
	5
	3
	10
	5
	15
	2
	6
	15
	2
	15
	5
	11
	7
	15
	0
	13
	4
	10
	7
	15
	0
	17
	5
	10
	7
	15
	0
	17
	5
	10
	7
	10
	0
	15
	1
	15
	7
	10
	5
	12
	5
	15
	2
	15
	0
	15
	5
	11
	7
	5
	10
	8
	10
	4
	10
	8
	10
	5
	10
	7
	10
	6
	15
	0
	15
	7
	1
	15
	0
	15
	2
	6
	15
	0
	7
	10
	0
	15
	0
	4
	10
	0
	15
	7
	10
	5
	12
	5
	15
	2
	15
	1
	15
	5
	10
	7
	11
	5
	15
	0
	10
	4
	8
	10
	5
	15
	3
	5
	10
	2
	15
	5
	12
	0
	15
	7
	10
	5
	12
	0
	15
	7
	10
	0
	17
	0
	15
	7
	0
	15
	0
	7
	10
	4
	13
	0
	15
	7
	10
	0
	13
	4
	15
	2
	15
	5
	10
	8
	4
	10
	8
	10
	5
	7
	10
	4
	13
	5
	15
	2
	15
	5
	12
	5
	15
	2
	5
	10
	5
	3
	15
	0
	15
	8
	10
	4
	8
	10
	5
	15
	2
	15
	5
	12
	0
	15
	7
	10
	5
	8
	10
	4
	10
	8
	15
	0
	7
	10
	6
	15
	0
	15
	7
	1
	15
	7
	10
	0
	13
	4
	15
	2
	15
	5
	10
	8
	10
	4
	10
	5
	0
	15
	3
	15
	5
	10
	5
	3
	15
	5
	10
	5
	10
	4
